1 100 405 115
0 40.0 50.0 0.0 0.0 0 1236
2 45.0 68.0 90.0 10.0 830 1049 1 5
3 45.0 70.0 90.0 30.0 756 939 2 5
4 42.0 66.0 90.0 10.0 16 336 3 5
5 42.0 68.0 90.0 10.0 643 866 4 5
6 42.0 65.0 90.0 10.0 15 226 5 5
7 40.0 69.0 90.0 20.0 499 824 6 10
8 40.0 66.0 90.0 20.0 87 308 7 10
9 38.0 68.0 90.0 20.0 150 429 8 10
10 38.0 70.0 90.0 10.0 429 710 9 10
11 35.0 66.0 90.0 10.0 279 488 10 10
12 35.0 69.0 90.0 10.0 363 590 11 15
13 25.0 85.0 90.0 20.0 547 826 12 15
14 22.0 75.0 90.0 30.0 30 280 13 15
15 22.0 85.0 90.0 10.0 489 698 14 15
16 20.0 80.0 90.0 40.0 318 495 15 15
17 20.0 85.0 90.0 40.0 394 609 16 5
18 18.0 75.0 90.0 20.0 33 226 17 5
19 15.0 75.0 90.0 20.0 68 365 18 5
20 15.0 80.0 90.0 10.0 176 447 19 5
21 30.0 50.0 90.0 10.0 10 265 20 5
22 30.0 52.0 90.0 20.0 836 1043 21 10
23 28.0 52.0 90.0 20.0 704 991 22 10
24 28.0 55.0 90.0 10.0 664 845 23 10
25 25.0 50.0 90.0 10.0 15 333 24 10
26 25.0 52.0 90.0 40.0 88 305 25 10
27 25.0 55.0 90.0 10.0 502 821 26 15
28 23.0 52.0 90.0 10.0 179 398 27 15
29 23.0 55.0 90.0 20.0 476 663 28 15
30 20.0 50.0 90.0 10.0 288 475 29 15
31 20.0 55.0 90.0 10.0 368 585 30 15
32 10.0 35.0 90.0 20.0 144 293 31 5
33 10.0 40.0 90.0 30.0 31 309 32 5
34 8.0 40.0 90.0 40.0 33 313 33 5
35 8.0 45.0 90.0 20.0 655 912 34 5
36 5.0 35.0 90.0 10.0 191 436 35 5
37 5.0 45.0 90.0 10.0 588 793 36 10
38 2.0 40.0 90.0 20.0 305 512 37 10
39 0.0 40.0 90.0 30.0 414 587 38 10
40 0.0 45.0 90.0 20.0 481 710 39 10
41 35.0 30.0 90.0 10.0 180 405 40 10
42 35.0 32.0 90.0 10.0 63 338 41 15
43 33.0 32.0 90.0 20.0 19 345 42 15
44 33.0 35.0 90.0 10.0 16 273 43 15
45 32.0 30.0 90.0 10.0 278 493 44 15
46 30.0 30.0 90.0 10.0 453 688 45 15
47 30.0 32.0 90.0 30.0 355 602 46 5
48 30.0 35.0 90.0 10.0 837 1127 47 5
49 28.0 30.0 90.0 10.0 539 786 48 5
50 28.0 35.0 90.0 10.0 867 1126 49 5
51 26.0 32.0 90.0 10.0 719 976 50 5
52 25.0 30.0 90.0 10.0 635 876 51 10
53 25.0 35.0 90.0 10.0 825 1056 52 10
54 44.0 5.0 90.0 20.0 193 440 53 10
55 42.0 10.0 90.0 40.0 78 365 54 10
56 42.0 15.0 90.0 10.0 35 287 55 10
57 40.0 5.0 90.0 30.0 308 513 56 15
58 40.0 15.0 90.0 40.0 35 246 57 15
59 38.0 5.0 90.0 30.0 376 629 58 15
60 38.0 15.0 90.0 10.0 519 872 59 15
61 35.0 5.0 90.0 20.0 463 728 60 15
62 50.0 30.0 90.0 10.0 412 729 61 5
63 50.0 35.0 90.0 20.0 181 398 62 5
64 50.0 40.0 90.0 50.0 100 289 63 5
65 48.0 30.0 90.0 10.0 539 786 64 5
66 48.0 40.0 90.0 10.0 12 223 65 5
67 47.0 35.0 90.0 10.0 753 948 66 10
68 47.0 40.0 90.0 10.0 12 275 67 10
69 45.0 30.0 90.0 10.0 669 842 68 10
70 45.0 35.0 90.0 10.0 836 1049 69 10
71 95.0 30.0 90.0 30.0 284 559 70 10
72 95.0 35.0 90.0 20.0 194 459 71 15
73 53.0 30.0 90.0 10.0 367 588 72 15
74 92.0 30.0 90.0 10.0 370 659 73 15
75 53.0 35.0 90.0 50.0 263 502 74 15
76 45.0 65.0 90.0 20.0 847 1130 75 15
77 90.0 35.0 90.0 10.0 119 344 76 5
78 88.0 30.0 90.0 10.0 469 748 77 5
79 88.0 35.0 90.0 20.0 50 295 78 5
80 87.0 30.0 90.0 10.0 573 826 79 5
81 85.0 25.0 90.0 10.0 694 895 80 5
82 85.0 35.0 90.0 30.0 47 356 81 10
83 75.0 55.0 90.0 20.0 293 496 82 10
84 72.0 55.0 90.0 10.0 154 449 83 10
85 70.0 58.0 90.0 20.0 360 621 84 10
86 68.0 60.0 90.0 30.0 470 697 85 10
87 66.0 55.0 90.0 10.0 76 335 86 15
88 65.0 55.0 90.0 20.0 25 260 87 15
89 65.0 60.0 90.0 30.0 551 802 88 15
90 63.0 58.0 90.0 10.0 640 899 89 15
91 60.0 55.0 90.0 10.0 20 276 90 15
92 60.0 60.0 90.0 10.0 756 969 91 5
93 67.0 85.0 90.0 20.0 257 552 92 5
94 65.0 85.0 90.0 40.0 409 584 93 5
95 65.0 82.0 90.0 10.0 209 412 94 5
96 62.0 80.0 90.0 30.0 130 305 95 5
97 60.0 80.0 90.0 10.0 36 283 96 10
98 60.0 85.0 90.0 30.0 470 713 97 10
99 58.0 75.0 90.0 20.0 30 248 98 10
100 55.0 80.0 90.0 10.0 628 935 99 10
101 55.0 85.0 90.0 20.0 530 843 100 10